
Gurobi 6.5.2 (linux64) logging started Tue Sep 20 21:16:19 2016


Gurobi 6.5.2 (linux64) logging started Tue Sep 20 21:16:19 2016

Optimize a model with 41 rows, 153 columns and 309 nonzeros
Coefficient statistics:
  Matrix range    [1e+00, 2e+00]
  Objective range [2e+00, 1e+02]
  Bounds range    [1e+00, 1e+00]
  RHS range       [1e+00, 1e+00]
Presolve removed 20 rows and 18 columns
Presolve time: 0.00s
Presolved: 21 rows, 135 columns, 271 nonzeros
Variable types: 0 continuous, 135 integer (135 binary)

Root relaxation: objective 4.530000e+02, 32 iterations, 0.00 seconds

    Nodes    |    Current Node    |     Objective Bounds      |     Work
 Expl Unexpl |  Obj  Depth IntInf | Incumbent    BestBd   Gap | It/Node Time

     0     0  453.00000    0    6          -  453.00000      -     -    0s
     0     0  461.50000    0   10          -  461.50000      -     -    0s
     0     0  462.50000    0   20          -  462.50000      -     -    0s
H    0     0                     548.0000000  462.50000  15.6%     -    0s
     0     0  463.00000    0   18  548.00000  463.00000  15.5%     -    0s
*    0     0               0     463.0000000  463.00000  0.00%     -    0s

Cutting planes:
  Gomory: 2
  MIR: 2
  Zero half: 2
  Lazy constraints: 9

Explored 0 nodes (48 simplex iterations) in 0.01 seconds
Thread count was 8 (of 8 available processors)

Optimal solution found (tolerance 1.00e-04)
Best objective 4.630000000000e+02, best bound 4.630000000000e+02, gap 0.0%
